c generated by sgen
p cnf 121 252
-2 -3 -4 0
-1 -3 -4 0
-1 -2 -4 0
-1 -2 -3 0
-6 -7 -8 0
-5 -7 -8 0
-5 -6 -8 0
-5 -6 -7 0
-10 -11 -12 0
-9 -11 -12 0
-9 -10 -12 0
-9 -10 -11 0
-14 -15 -16 0
-13 -15 -16 0
-13 -14 -16 0
-13 -14 -15 0
-18 -19 -20 0
-17 -19 -20 0
-17 -18 -20 0
-17 -18 -19 0
-22 -23 -24 0
-21 -23 -24 0
-21 -22 -24 0
-21 -22 -23 0
-26 -27 -28 0
-25 -27 -28 0
-25 -26 -28 0
-25 -26 -27 0
-30 -31 -32 0
-29 -31 -32 0
-29 -30 -32 0
-29 -30 -31 0
-34 -35 -36 0
-33 -35 -36 0
-33 -34 -36 0
-33 -34 -35 0
-38 -39 -40 0
-37 -39 -40 0
-37 -38 -40 0
-37 -38 -39 0
-42 -43 -44 0
-41 -43 -44 0
-41 -42 -44 0
-41 -42 -43 0
-46 -47 -48 0
-45 -47 -48 0
-45 -46 -48 0
-45 -46 -47 0
-50 -51 -52 0
-49 -51 -52 0
-49 -50 -52 0
-49 -50 -51 0
-54 -55 -56 0
-53 -55 -56 0
-53 -54 -56 0
-53 -54 -55 0
-58 -59 -60 0
-57 -59 -60 0
-57 -58 -60 0
-57 -58 -59 0
-62 -63 -64 0
-61 -63 -64 0
-61 -62 -64 0
-61 -62 -63 0
-66 -67 -68 0
-65 -67 -68 0
-65 -66 -68 0
-65 -66 -67 0
-70 -71 -72 0
-69 -71 -72 0
-69 -70 -72 0
-69 -70 -71 0
-74 -75 -76 0
-73 -75 -76 0
-73 -74 -76 0
-73 -74 -75 0
-78 -79 -80 0
-77 -79 -80 0
-77 -78 -80 0
-77 -78 -79 0
-82 -83 -84 0
-81 -83 -84 0
-81 -82 -84 0
-81 -82 -83 0
-86 -87 -88 0
-85 -87 -88 0
-85 -86 -88 0
-85 -86 -87 0
-90 -91 -92 0
-89 -91 -92 0
-89 -90 -92 0
-89 -90 -91 0
-94 -95 -96 0
-93 -95 -96 0
-93 -94 -96 0
-93 -94 -95 0
-98 -99 -100 0
-97 -99 -100 0
-97 -98 -100 0
-97 -98 -99 0
-102 -103 -104 0
-101 -103 -104 0
-101 -102 -104 0
-101 -102 -103 0
-106 -107 -108 0
-105 -107 -108 0
-105 -106 -108 0
-105 -106 -107 0
-110 -111 -112 0
-109 -111 -112 0
-109 -110 -112 0
-109 -110 -111 0
-114 -115 -116 0
-113 -115 -116 0
-113 -114 -116 0
-113 -114 -115 0
-117 -118 -119 0
-117 -118 -120 0
-117 -118 -121 0
-117 -119 -120 0
-117 -119 -121 0
-117 -120 -121 0
-118 -119 -120 0
-118 -119 -121 0
-118 -120 -121 0
-119 -120 -121 0
67 93 119 0
9 93 119 0
9 67 119 0
9 67 93 0
62 91 75 0
8 91 75 0
8 62 75 0
8 62 91 0
80 76 110 0
48 76 110 0
48 80 110 0
48 80 76 0
58 42 14 0
39 42 14 0
39 58 14 0
39 58 42 0
23 61 37 0
85 61 37 0
85 23 37 0
85 23 61 0
2 92 32 0
79 92 32 0
79 2 32 0
79 2 92 0
13 103 121 0
31 103 121 0
31 13 121 0
31 13 103 0
27 52 111 0
1 52 111 0
1 27 111 0
1 27 52 0
57 120 98 0
34 120 98 0
34 57 98 0
34 57 120 0
87 54 6 0
3 54 6 0
3 87 6 0
3 87 54 0
36 21 11 0
84 21 11 0
84 36 11 0
84 36 21 0
113 64 78 0
16 64 78 0
16 113 78 0
16 113 64 0
99 74 56 0
49 74 56 0
49 99 56 0
49 99 74 0
97 116 88 0
90 116 88 0
90 97 88 0
90 97 116 0
102 33 65 0
72 33 65 0
72 102 65 0
72 102 33 0
101 77 106 0
22 77 106 0
22 101 106 0
22 101 77 0
112 95 44 0
69 95 44 0
69 112 44 0
69 112 95 0
38 115 94 0
107 115 94 0
107 38 94 0
107 38 115 0
28 24 35 0
96 24 35 0
96 28 35 0
96 28 24 0
15 17 5 0
109 17 5 0
109 15 5 0
109 15 17 0
105 51 46 0
30 51 46 0
30 105 46 0
30 105 51 0
10 70 20 0
73 70 20 0
73 10 20 0
73 10 70 0
18 59 53 0
29 59 53 0
29 18 53 0
29 18 59 0
117 26 71 0
86 26 71 0
86 117 71 0
86 117 26 0
66 4 114 0
12 4 114 0
12 66 114 0
12 66 4 0
25 45 19 0
40 45 19 0
40 25 19 0
40 25 45 0
43 7 108 0
100 7 108 0
100 43 108 0
100 43 7 0
83 55 118 0
89 55 118 0
89 83 118 0
89 83 55 0
81 68 41 0
47 68 41 0
47 81 41 0
47 81 68 0
104 63 82 0
104 63 60 0
104 63 50 0
104 82 60 0
104 82 50 0
104 60 50 0
63 82 60 0
63 82 50 0
63 60 50 0
82 60 50 0
